20
0 1 0.42 0.25
0 2 0.18 0.13
0 3 0.42 0.09
0 4 0.09 0.01
0 5 0.49 0.19
0 6 0.44 0.19
0 7 0.22 0.05
0 8 0.66 0.15
0 9 0.33 0.25
0 10 0.76 0.29
0 11 0.34 0.12
0 12 0.55 0.27
0 13 0.28 0.1
0 14 0.46 0.19
0 15 0.32 0.15
0 16 0.58 0.34
0 17 0.54 0.21
0 18 0.68 0.09
0 19 0.48 0.26
1 2 0.6 0.34
1 3 0.48 0.24
1 4 0.51 0.26
1 5 0.44 0.16
1 6 0.44 0.34
1 7 0.28 0.2
1 8 0.86 0.4
1 9 0.52 0.3
1 10 0.68 0.52
1 11 0.76 0.27
1 12 0.62 0.42
1 13 0.7 0.25
1 14 0.52 0.34
1 15 0.62 0.29
1 16 0.57 0.44
1 17 0.54 0.36
1 18 0.76 0.34
1 19 0.62 0.42
2 3 0.48 0.1
2 4 0.27 0.14
2 5 0.64 0.23
2 6 0.62 0.28
2 7 0.4 0.14
2 8 0.48 0.28
2 9 0.51 0.17
2 10 0.8 0.37
2 11 0.52 0.12
2 12 0.46 0.22
2 13 0.46 0.1
2 14 0.6 0.28
2 15 0.5 0.26
2 16 0.68 0.35
2 17 0.72 0.26
2 18 0.5 0.22
2 19 0.46 0.24
3 4 0.51 0.1
3 5 0.78 0.14
3 6 0.68 0.18
3 7 0.2 0.04
3 8 0.64 0.24
3 9 0.67 0.27
3 10 0.52 0.28
3 11 0.6 0.03
3 12 0.72 0.26
3 13 0.32 0.01
3 14 0.4 0.18
3 15 0.73 0.24
3 16 0.4 0.25
3 17 0.66 0.23
3 18 0.51 0.18
3 19 0.58 0.2
4 5 0.4 0.2
4 6 0.53 0.2
4 7 0.31 0.06
4 8 0.62 0.14
4 9 0.42 0.26
4 10 0.8 0.28
4 11 0.43 0.13
4 12 0.46 0.28
4 13 0.37 0.11
4 14 0.37 0.2
4 15 0.41 0.16
4 16 0.67 0.34
4 17 0.63 0.22
4 18 0.77 0.08
4 19 0.57 0.25
5 6 0.66 0.28
5 7 0.66 0.14
5 8 0.42 0.34
5 9 0.59 0.14
5 10 0.69 0.4
5 11 0.58 0.15
5 12 0.66 0.36
5 13 0.71 0.13
5 14 0.42 0.28
5 15 0.69 0.24
5 16 0.48 0.29
5 17 0.27 0.23
5 18 0.54 0.28
5 19 0.59 0.32
6 7 0.48 0.14
6 8 0.65 0.34
6 9 0.72 0.26
6 10 0.58 0.39
6 11 0.66 0.21
6 12 0.18 0.08
6 13 0.68 0.19
6 14 0.4 0.28
6 15 0.44 0.16
6 16 0.69 0.43
6 17 0.4 0.26
6 18 0.84 0.28
6 19 0.64 0.3
7 8 0.68 0.2
7 9 0.55 0.28
7 10 0.54 0.32
7 11 0.51 0.07
7 12 0.52 0.22
7 13 0.5 0.05
7 14 0.24 0.14
7 15 0.54 0.2
7 16 0.44 0.29
7 17 0.51 0.26
7 18 0.67 0.14
7 19 0.38 0.22
8 9 0.7 0.26
8 10 0.58 0.36
8 11 0.65 0.27
8 12 0.47 0.3
8 13 0.76 0.25
8 14 0.59 0.28
8 15 0.67 0.3
8 16 0.69 0.32
8 17 0.61 0.27
8 18 0.57 0.06
8 19 0.54 0.39
9 10 0.56 0.48
9 11 0.6 0.29
9 12 0.77 0.31
9 13 0.4 0.27
9 14 0.79 0.18
9 15 0.52 0.1
9 16 0.27 0.2
9 17 0.32 0.32
9 18 0.44 0.32
9 19 0.5 0.24
10 11 0.68 0.29
10 12 0.75 0.31
10 13 0.5 0.27
10 14 0.6 0.32
10 15 0.48 0.42
10 16 0.83 0.33
10 17 0.88 0.33
10 18 0.68 0.36
10 19 0.59 0.35
11 12 0.48 0.26
11 13 0.58 0.02
11 14 0.56 0.21
11 15 0.6 0.26
11 16 0.56 0.28
11 17 0.37 0.2
11 18 0.62 0.21
11 19 0.46 0.23
12 13 0.5 0.27
12 14 0.58 0.36
12 15 0.27 0.21
12 16 0.87 0.39
12 17 0.45 0.28
12 18 0.66 0.36
12 19 0.46 0.35
13 14 0.68 0.19
13 15 0.41 0.24
13 16 0.62 0.26
13 17 0.44 0.22
13 18 0.72 0.19
13 19 0.5 0.21
14 15 0.46 0.28
14 16 0.68 0.38
14 17 0.66 0.17
14 18 0.8 0.28
14 19 0.34 0.22
15 16 0.79 0.3
15 17 0.45 0.22
15 18 0.82 0.24
15 19 0.73 0.14
16 17 0.59 0.48
16 18 0.37 0.26
16 19 0.74 0.44
17 18 0.62 0.3
17 19 0.32 0.22
18 19 0.66 0.33
